0 3408 
1 3404 
2 3390 
3 3386 
4 3382 
5 3368 
6 3364 
7 3360 
8 3356 
9 3354 
10 3336 
11 3306 
12 3300 
13 3284 
14 3280 
15 3270 
16 3258 
17 3252 
18 3248 
19 3238 
20 3224 
21 3204 
22 3188 
23 3172 
24 3164 
25 3156 
26 3148 
27 3144 
28 3134 
29 3114 
30 3102 
31 3092 
32 3084 
33 3082 
34 3078 
35 3074 
36 3072 
37 3048 
38 3044 
39 3038 
40 3036 
41 3014 
42 3000 
43 2996 
44 2988 
45 2978 
46 2964 
47 2962 
48 2958 
49 2942 
50 2908 
51 2904 
52 2890 
53 2878 
54 2866 
55 2854 
56 2846 
57 2842 
58 2842 
59 2830 
60 2810 
61 2790 
62 2782 
63 2780 
64 2760 
65 2756 
66 2738 
67 2732 
68 2720 
69 2718 
70 2696 
71 2692 
72 2692 
73 2688 
74 2680 
75 2676 
76 2676 
77 2630 
78 2618 
79 2602 
80 2598 
81 2594 
82 2594 

